false true true
presolving:
presolving (0 rounds: 0 fast, 0 medium, 0 exhaustive):
 0 deleted vars, 0 deleted constraints, 0 added constraints, 0 tightened bounds, 0 added holes, 0 changed sides, 0 changed coefficients
 0 implications, 0 cliques
presolved problem has 55 variables (55 bin, 0 int, 0 impl, 0 cont) and 45 constraints
     45 constraints of type <linear>
transformed objective value is always integral (scale: 1)
Presolving Time: 0.00

 time | node  | left  |LP iter|LP it/n|mem/heur|mdpt |vars |cons |rows |cuts |sepa|confs|strbr|  dualbound   | primalbound  |  gap   | compl. 
p 0.0s|     1 |     0 |     0 |     - |shiftand|   0 |  55 |  45 |  45 |   0 |  0 |   0 |   0 |      --      | 1.000000e+01 |    Inf | unknown
 time | node  | left  |LP iter|LP it/n|mem/heur|mdpt |vars |cons |rows |cuts |sepa|confs|strbr|  dualbound   | primalbound  |  gap   | compl. 
  0.0s|     1 |     0 |    35 |     - |  1643k |   0 | 347 |  45 |  45 |   0 |  0 |   0 |   0 | 1.000000e+00 | 1.000000e+01 | 900.00%| unknown
 time | node  | left  |LP iter|LP it/n|mem/heur|mdpt |vars |cons |rows |cuts |sepa|confs|strbr|  dualbound   | primalbound  |  gap   | compl. 
  0.4s|     1 |     0 |   350 |     - |  3098k |   0 | 877 |  45 |  45 |   0 |  0 |   0 |   0 | 9.000000e+00 | 1.000000e+01 |  11.11%| unknown
 time | node  | left  |LP iter|LP it/n|mem/heur|mdpt |vars |cons |rows |cuts |sepa|confs|strbr|  dualbound   | primalbound  |  gap   | compl. 
  0.5s|     1 |     2 |  1092 |     - |  3385k |   0 | 877 |  45 |  45 |   0 |  1 |   0 |   0 | 9.000000e+00 | 1.000000e+01 |  11.11%| unknown
 time | node  | left  |LP iter|LP it/n|mem/heur|mdpt |vars |cons |rows |cuts |sepa|confs|strbr|  dualbound   | primalbound  |  gap   | compl. 
  0.5s|     2 |     3 |  1105 |  13.0 |  3434k |   1 | 877 |  45 |  45 |   0 |  1 |   0 |   0 | 9.000000e+00 | 1.000000e+01 |  11.11%| unknown
 time | node  | left  |LP iter|LP it/n|mem/heur|mdpt |vars |cons |rows |cuts |sepa|confs|strbr|  dualbound   | primalbound  |  gap   | compl. 
  0.5s|     3 |     4 |  1116 |  12.0 |  3543k |   1 | 877 |  45 |  45 |   0 |  1 |   0 |   0 | 9.000000e+00 | 1.000000e+01 |  11.11%| unknown
 time | node  | left  |LP iter|LP it/n|mem/heur|mdpt |vars |cons |rows |cuts |sepa|confs|strbr|  dualbound   | primalbound  |  gap   | compl. 
  0.6s|     4 |     5 |  1143 |  17.0 |  3553k |   2 | 877 |  45 |  45 |   0 |  1 |   0 |   0 | 9.000000e+00 | 1.000000e+01 |  11.11%| unknown
 time | node  | left  |LP iter|LP it/n|mem/heur|mdpt |vars |cons |rows |cuts |sepa|confs|strbr|  dualbound   | primalbound  |  gap   | compl. 
  0.6s|     5 |     6 |  1164 |  18.0 |  3555k |   3 | 877 |  45 |  45 |   0 |  1 |   0 |   0 | 9.000000e+00 | 1.000000e+01 |  11.11%| unknown
 time | node  | left  |LP iter|LP it/n|mem/heur|mdpt |vars |cons |rows |cuts |sepa|confs|strbr|  dualbound   | primalbound  |  gap   | compl. 
  0.7s|     6 |     7 |  1172 |  16.0 |  3556k |   3 | 877 |  45 |  45 |   0 |  1 |   0 |   0 | 9.000000e+00 | 1.000000e+01 |  11.11%| unknown
 time | node  | left  |LP iter|LP it/n|mem/heur|mdpt |vars |cons |rows |cuts |sepa|confs|strbr|  dualbound   | primalbound  |  gap   | compl. 
  0.7s|     7 |     8 |  1195 |  17.2 |  3559k |   4 | 877 |  45 |  45 |   0 |  1 |   0 |   0 | 9.000000e+00 | 1.000000e+01 |  11.11%| unknown
 time | node  | left  |LP iter|LP it/n|mem/heur|mdpt |vars |cons |rows |cuts |sepa|confs|strbr|  dualbound   | primalbound  |  gap   | compl. 
  0.8s|     8 |     9 |  1209 |  16.7 |  3691k |   4 | 877 |  45 |  45 |   0 |  1 |   0 |   0 | 9.000000e+00 | 1.000000e+01 |  11.11%| unknown
 time | node  | left  |LP iter|LP it/n|mem/heur|mdpt |vars |cons |rows |cuts |sepa|confs|strbr|  dualbound   | primalbound  |  gap   | compl. 
  0.8s|     9 |    10 |  1220 |  16.0 |  3698k |   5 | 877 |  45 |  45 |   0 |  1 |   0 |   0 | 9.000000e+00 | 1.000000e+01 |  11.11%| unknown
 time | node  | left  |LP iter|LP it/n|mem/heur|mdpt |vars |cons |rows |cuts |sepa|confs|strbr|  dualbound   | primalbound  |  gap   | compl. 
  0.9s|    10 |    11 |  1232 |  15.6 |  3699k |   5 | 877 |  45 |  45 |   0 |  1 |   0 |   0 | 9.000000e+00 | 1.000000e+01 |  11.11%| unknown
 time | node  | left  |LP iter|LP it/n|mem/heur|mdpt |vars |cons |rows |cuts |sepa|confs|strbr|  dualbound   | primalbound  |  gap   | compl. 
  1.0s|    11 |    12 |  1275 |  18.3 |  3706k |   6 | 877 |  45 |  45 |   0 |  1 |   0 |   0 | 9.000000e+00 | 1.000000e+01 |  11.11%| unknown
 time | node  | left  |LP iter|LP it/n|mem/heur|mdpt |vars |cons |rows |cuts |sepa|confs|strbr|  dualbound   | primalbound  |  gap   | compl. 
  1.0s|    12 |    13 |  1285 |  17.5 |  3706k |   6 | 877 |  45 |  45 |   0 |  1 |   0 |   0 | 9.000000e+00 | 1.000000e+01 |  11.11%| unknown
 time | node  | left  |LP iter|LP it/n|mem/heur|mdpt |vars |cons |rows |cuts |sepa|confs|strbr|  dualbound   | primalbound  |  gap   | compl. 
  1.1s|    13 |    14 |  1287 |  16.2 |  3709k |   7 | 877 |  45 |  45 |   0 |  1 |   0 |   0 | 9.000000e+00 | 1.000000e+01 |  11.11%| unknown
 time | node  | left  |LP iter|LP it/n|mem/heur|mdpt |vars |cons |rows |cuts |sepa|confs|strbr|  dualbound   | primalbound  |  gap   | compl. 
r 1.2s|    14 |     0 |  1308 |  16.6 |simplero|   8 | 877 |  45 |  45 |   0 |  0 |   0 |   0 | 9.000000e+00 | 9.000000e+00 |   0.00%|  99.86%

SCIP Status        : problem is solved [optimal solution found]
Solving Time (sec) : 1.19
Solving Nodes      : 14
Primal Bound       : +9.00000000000000e+00 (3 solutions)
Dual Bound         : +9.00000000000000e+00
Gap                : 0.00 %
Running with parallel: False bidir: True symbreak: True
Number of Nodes:  45
47.26803840877915% holds
starting cheapest insertion heuristic
Heuristic without TSP improvement:  11
Heuristic without TSP improvement time:  0.1
Heuristic Sol:  10
Heuristic total time:  0.1
[[26, 41, 3, 34, 4, 21, 13], [43, 18, 35, 20], [44, 14, 25, 11, 17, 30], [42, 39, 33, 16, 40, 19], [38, 10, 6, 28, 22], [37, 8, 12, 15], [36, 0, 1, 9], [31, 29, 2], [32, 7], [27, 24, 5, 23]]
Instance path:  /home/htc/mghannam/SCRATCH/lccp-rust/data/at84_ftv44.npcc
Timelimit:  7200
Heuristic without TSP improvement:  11
Heuristic without TSP improvement time:  0.1
Heuristic Sol:  10
Heuristic total time:  0.2
at 1 zero_duals: 35
at1, LP obj: 10.0 n_added_paths: 292
at 1 zero_duals: 32
at1, LP obj: 10.0 n_added_paths: 79
at 1 zero_duals: 11
at1, LP obj: 9.555555555555555 n_added_paths: 255
at 1 zero_duals: 8
at1, LP obj: 8.880184331797235 n_added_paths: 136
at 1 zero_duals: 5
at1, LP obj: 8.6 n_added_paths: 17
at 1 zero_duals: 4
at1, LP obj: 8.5 n_added_paths: 27
at 1 zero_duals: 5
at1, LP obj: 8.481412639405203 n_added_paths: 3
at 1 zero_duals: 6
Switching to elementary pricing
at1, LP obj: 8.473833097595474 n_added_paths: 13
updated lowerbound from 1.0 to 9
Gap too small = 0, stopping pricing with lb = 9
Gap too small = 0, stopping pricing with lb = 9
Gap too small = 0, stopping pricing with lb = 9
Gap too small = 0, stopping pricing with lb = 9
Gap too small = 0, stopping pricing with lb = 9
Gap too small = 0, stopping pricing with lb = 9
Gap too small = 0, stopping pricing with lb = 9
Gap too small = 0, stopping pricing with lb = 9
Gap too small = 0, stopping pricing with lb = 9
Gap too small = 0, stopping pricing with lb = 9
Gap too small = 0, stopping pricing with lb = 9
Gap too small = 0, stopping pricing with lb = 9
Gap too small = 0, stopping pricing with lb = 9
Gap too small = 0, stopping pricing with lb = 9
Best solution found:
t_[43, 18, 35, 20, 43] 1.0 1.0
checking cycle [43, 18, 35, 20, 43]
[43, 18, 35, 20, 43] 202 152
t_[44, 14, 25, 11, 17, 30, 44] 1.0 1.0
checking cycle [44, 14, 25, 11, 17, 30, 44]
[44, 14, 25, 11, 17, 30, 44] 202 195
t_[37, 8, 12, 15, 37] 1.0 1.0
checking cycle [37, 8, 12, 15, 37]
[37, 8, 12, 15, 37] 251 239
t_[24, 24, 24] 1.0 1.0
checking cycle [24, 24, 24]
[24, 24, 24] 293 0
[38, 10, 31, 29, 6, 38] 1.0 1.0
checking cycle [38, 10, 31, 29, 6, 38]
[38, 10, 31, 29, 6, 38] 232 230
[39, 36, 9, 1, 0, 16, 33, 39] 1.0 1.0
checking cycle [39, 36, 9, 1, 0, 16, 33, 39]
[39, 36, 9, 1, 0, 16, 33, 39] 230 211
[41, 3, 34, 4, 7, 21, 13, 26, 41] 1.0 1.0
checking cycle [41, 3, 34, 4, 7, 21, 13, 26, 41]
[41, 3, 34, 4, 7, 21, 13, 26, 41] 219 212
[28, 27, 23, 5, 22, 28] 1.0 1.0
checking cycle [28, 27, 23, 5, 22, 28]
[28, 27, 23, 5, 22, 28] 275 270
[42, 2, 40, 32, 19, 42] 1.0 1.0
checking cycle [42, 2, 40, 32, 19, 42]
[42, 2, 40, 32, 19, 42] 215 212
